(set-logic ALL)
(set-option :produce-models true)
(define-fun-rec str.toLower ((x String)) String
  (ite (= x "")
      ""
      (let ((Head (str.at x 0)))
        (str.++ 
          (ite (and (<= 65 (str.to_code Head)) 
                     (<= (str.to_code Head) 90))
               (str.from_code (+ (str.to_code Head) 32))
               Head)
          (str.toLower (str.substr x 1 (- (str.len x) 1)))))))
(declare-fun sym1907 () String)
(declare-fun sym209 () String)
(declare-fun sym817 () String)
(declare-fun sym551 () String)
(declare-fun sym1689 () String)
(declare-fun sym1035 () String)
(declare-fun sym2125 () String)
(declare-fun sym1253 () String)
(declare-fun sym2343 () String)
(declare-fun sym1471 () String)
(declare-fun sym2660 () String)
(declare-fun sym2561 () String)
(declare-fun sym161 () String)

(assert (not (= (str.toLower (str.substr sym2660  0 1))"y" )))
(assert (= (str.toLower (str.substr sym1035  0 1))"p" ))
(assert (= "y" "y" ))
(assert (not (= "" sym2561 )))
(assert (not (= "n" "y" )))
(assert (not (= "" "n" )))
(assert (= (str.toLower (str.substr sym209  0 1))"y" ))
(assert (not (= (str.toLower (str.substr sym2561  0 1))"q" )))
(assert (not (= "y" "n" )))
(assert (not (= (str.toLower (str.substr sym2343  0 1))"q" )))
(assert (not (= "" sym1035 )))
(assert (= (str.toLower (str.substr sym2125  0 1))"p" ))
(assert (not (= "" sym2343 )))
(assert (= (str.toLower (str.substr sym2343  0 1))"p" ))
(assert (not (= "" sym817 )))
(assert (not (= "" (str.toLower (str.substr sym209  0 1)))))
(assert (not (= "" sym209 )))
(assert (= (str.toLower (str.substr sym1471  0 1))"p" ))
(assert (= (str.toLower (str.substr sym551  0 1))"p" ))
(assert (not (= "" sym1471 )))
(assert (not (= (str.toLower (str.substr sym1689  0 1))"q" )))
(assert (not (= "" "y" )))
(assert (not (= "" sym1689 )))
(assert (not (= "" (str.toLower (str.substr sym2660  0 1)))))
(assert (= (str.toLower (str.substr sym1253  0 1))"p" ))
(assert (not (= (str.toLower (str.substr sym2125  0 1))"q" )))
(assert (not (= (str.toLower (str.substr sym1471  0 1))"q" )))
(assert (not (= "" sym1907 )))
(assert (not (= "" "y" )))
(assert (= "" "" ))
(assert (not (= (str.toLower (str.substr sym1907  0 1))"q" )))
(assert (not (= "" sym551 )))
(assert (= (str.toLower (str.substr sym1689  0 1))"p" ))
(assert (= (str.toLower (str.substr sym817  0 1))"p" ))
(assert (not (= (str.toLower (str.substr sym1035  0 1))"q" )))
(assert (= "" sym161 ))
(assert (= (str.toLower (str.substr sym1907  0 1))"p" ))
(assert (= (str.toLower (str.substr sym2561  0 1))"p" ))
(assert (not (= "" sym1253 )))
(assert (not (= (str.toLower (str.substr sym551  0 1))"q" )))
(assert (not (= "" sym2660 )))
(assert (not (= "" "q" )))
(assert (not (= "" sym2125 )))
(assert (not (= (str.toLower (str.substr sym817  0 1))"q" )))
(assert (not (= (str.toLower (str.substr sym1253  0 1))"q" )))
(check-sat)
(get-model)
(exit)
